20
0 1 0.18 0.18
0 2 0.04 0.04
0 3 0.2 0.2
0 4 0.59 0.16
0 5 0.24 0.24
0 6 0.11 0.11
0 7 0.13 0.13
0 8 0.52 0.08
0 9 0.15 0.15
0 10 0.14 0.14
0 11 0.2 0.2
0 12 0.24 0.24
0 13 0.5 0.18
0 14 0.42 0.28
0 15 0.12 0.12
0 16 0.54 0.21
0 17 0.43 0.13
0 18 0.79 0.28
0 19 0.06 0.06
1 2 0.22 0.22
1 3 0.34 0.34
1 4 0.34 0.34
1 5 0.57 0.33
1 6 0.55 0.28
1 7 0.54 0.3
1 8 0.61 0.26
1 9 0.31 0.28
1 10 0.8 0.32
1 11 0.76 0.38
1 12 0.25 0.25
1 13 0.27 0.27
1 14 0.9 0.29
1 15 0.46 0.3
1 16 0.34 0.34
1 17 0.72 0.3
1 18 0.46 0.46
1 19 0.23 0.23
2 3 0.24 0.24
2 4 0.2 0.2
2 5 0.7 0.28
2 6 0.42 0.15
2 7 0.17 0.17
2 8 0.12 0.12
2 9 0.4 0.18
2 10 0.1 0.1
2 11 0.16 0.16
2 12 0.28 0.28
2 13 0.3 0.22
2 14 0.71 0.32
2 15 0.16 0.16
2 16 0.24 0.24
2 17 0.17 0.17
2 18 0.28 0.28
2 19 0.1 0.1
3 4 0.27 0.27
3 5 0.23 0.17
3 6 0.61 0.19
3 7 0.75 0.21
3 8 0.26 0.26
3 9 0.57 0.18
3 10 0.34 0.34
3 11 0.5 0.32
3 12 0.65 0.32
3 13 0.15 0.15
3 14 0.21 0.21
3 15 0.21 0.21
3 16 0.78 0.12
3 17 0.21 0.21
3 18 0.27 0.27
3 19 0.46 0.14
4 5 0.62 0.28
4 6 0.38 0.08
4 7 0.51 0.06
4 8 0.36 0.08
4 9 0.52 0.22
4 10 0.84 0.2
4 11 0.67 0.35
4 12 0.57 0.24
4 13 0.19 0.19
4 14 0.82 0.32
4 15 0.25 0.25
4 16 0.58 0.28
4 17 0.06 0.06
4 18 0.36 0.36
4 19 0.13 0.13
5 6 0.66 0.24
5 7 0.8 0.22
5 8 0.29 0.29
5 9 0.21 0.21
5 10 0.74 0.36
5 11 0.21 0.21
5 12 0.6 0.31
5 13 0.18 0.18
5 14 0.82 0.04
5 15 0.24 0.12
5 16 0.76 0.15
5 17 0.22 0.22
5 18 0.7 0.28
5 19 0.29 0.29
6 7 0.02 0.02
6 8 0.57 0.16
6 9 0.68 0.14
6 10 0.16 0.16
6 11 0.31 0.31
6 12 0.23 0.23
6 13 0.27 0.27
6 14 0.28 0.28
6 15 0.56 0.23
6 16 0.59 0.2
6 17 0.02 0.02
6 18 0.35 0.35
6 19 0.05 0.05
7 8 0.87 0.14
7 9 0.6 0.16
7 10 0.39 0.14
7 11 0.29 0.29
7 12 0.7 0.25
7 13 0.25 0.25
7 14 0.26 0.26
7 15 0.66 0.22
7 16 0.22 0.22
7 17 0.47 0.0
7 18 0.37 0.37
7 19 0.07 0.07
8 9 0.23 0.23
8 10 0.22 0.22
8 11 0.28 0.28
8 12 0.32 0.32
8 13 0.74 0.11
8 14 0.33 0.33
8 15 0.58 0.17
8 16 0.29 0.29
8 17 0.72 0.14
8 18 0.33 0.33
8 19 0.14 0.14
9 10 0.28 0.28
9 11 0.59 0.34
9 12 0.27 0.27
9 13 0.28 0.28
9 14 0.25 0.25
9 15 0.62 0.27
9 16 0.06 0.06
9 17 0.77 0.16
9 18 0.53 0.21
9 19 0.09 0.09
10 11 0.6 0.26
10 12 0.38 0.38
10 13 0.68 0.32
10 14 0.74 0.4
10 15 0.26 0.26
10 16 0.66 0.34
10 17 0.14 0.14
10 18 0.69 0.3
10 19 0.2 0.2
11 12 0.76 0.44
11 13 0.53 0.38
11 14 0.43 0.17
11 15 0.6 0.32
11 16 0.6 0.31
11 17 0.51 0.29
11 18 0.65 0.16
11 19 0.44 0.26
12 13 0.4 0.28
12 14 0.77 0.35
12 15 0.56 0.26
12 16 0.42 0.32
12 17 0.45 0.25
12 18 0.64 0.29
12 19 0.18 0.18
13 14 0.62 0.22
13 15 0.16 0.06
13 16 0.53 0.22
13 17 0.25 0.25
13 18 0.62 0.22
13 19 0.24 0.24
14 15 0.16 0.16
14 16 0.74 0.19
14 17 0.26 0.26
14 18 0.86 0.32
14 19 0.59 0.33
15 16 0.27 0.27
15 17 0.6 0.22
15 18 0.46 0.16
15 19 0.18 0.18
16 17 0.22 0.22
16 18 0.15 0.15
16 19 0.15 0.15
17 18 0.37 0.37
17 19 0.59 0.07
18 19 0.62 0.3
